nbProcess=3;
nbJobs =3;
nbMchs =3;
Process1=[3,3,3];
pidle=[1,2,3];
EnergyS=[10,30,60];
TB=[10,15,20];
x=
[
[
[1,1,0,],
[1,1,0,],
[1,0,0,],
],
[
[1,1,1,],
[0,1,1,],
[1,1,1,],
],
[
[0,0,1,],
[1,0,1,],
[0,1,1,],
],
];
ptime =
[
[
[17,40,0],
[30,50,0],
[50,0,0]
],
[
[25,30,50],
[0,60,70],
[60,70,90]
],
[
[0,0,60],
[50,0,60],
[0,80,100]
]
];
power1=
[
[
[4.6,3,0,],
[3.3,4.3,0,],
[4.3,0,0,],
],
[
[3.6,4.5,3.4,],
[0,3.4,3.7,],
[4.3,4.6,3.2,],
],
[
[0,0,4,],
[3.9,0,3.6,],
[0,4,4.6,],
],
];